Zn3 Te3
1.0
4.373000 0.000000 0.000000
-2.186500 3.787129 0.000000
0.000000 0.000000 10.705000
Zn Te
3 3
direct
0.361258 0.021906 0.026874 Zn
0.661388 0.639753 0.693574 Zn
0.979588 0.339753 0.360174 Zn
0.023700 0.353000 0.110200 Te
0.329300 0.976300 0.776800 Te
0.647000 0.670700 0.443500 Te
