Zn3 Te3
1.0
4.373000 0.000000 0.000000
-2.186500 3.787129 0.000000
0.000000 0.000000 10.705000
Zn Te
3 3
direct
0.360600 0.021200 0.026500 Zn
0.660600 0.639400 0.693200 Zn
0.978800 0.339400 0.359800 Zn
0.023700 0.353000 0.110200 Te
0.329300 0.976300 0.776800 Te
0.647000 0.670700 0.443500 Te
