Zn3 Te3                                 
   1.00000000000000     
     4.3701086405083425   -0.0063656826386095   -0.0019037648390418
    -2.1905668755467982    3.7816717377561995    0.0018566262765257
    -0.0046612393841239    0.0025577095188201   10.6994124293837896
   Zn   Te
     3     3
Direct
  0.3551370263067240  0.0173065682386153  0.0265079240101908
  0.6619804120804416  0.6448726513019634  0.6931760356910465
  0.9826431280298868  0.3380520063896710  0.3598510407044607
  0.0191243476490279  0.3490901405784944  0.1101590834986173
  0.3301911284305658  0.9808794834666527  0.7768169015981982
  0.6509239575033536  0.6697991500246032  0.4434890144974832
 
  0.00000000E+00  0.00000000E+00  0.00000000E+00
  0.00000000E+00  0.00000000E+00  0.00000000E+00
  0.00000000E+00  0.00000000E+00  0.00000000E+00
  0.00000000E+00  0.00000000E+00  0.00000000E+00
  0.00000000E+00  0.00000000E+00  0.00000000E+00
  0.00000000E+00  0.00000000E+00  0.00000000E+00
